BarHalfLength [mm],vonMises [MPa]
10.0,71.73964686769703
30.0,69.62299327810359
